WARNING: for repeatability, setting FPU to use double precision
============================[ Problem Statistics ]=============================
|                                                                             |
|  Number of variables:         27899                                         |
|  Number of clauses:          570319                                         |
|  Parse time:                   0.14 s                                       |
|  Eliminated clauses:           0.05 Mb                                      |
|  Simplification time:          0.17 s                                       |
|                                                                             |
============================[ Search Statistics ]==============================
| Conflicts |          ORIGINAL         |          LEARNT          | Progress |
|           |    Vars  Clauses Literals |    Limit  Clauses Lit/Cl |          |
===============================================================================
|       100 |    3190    27585    87783 |    10114      100     12 | 72.103 % |
|       250 |    3190    27585    87783 |    11125      250     27 | 72.103 % |
|       475 |    3190    27585    87783 |    12238      475     30 | 72.103 % |
|       812 |    3190    27585    87783 |    13462      812     35 | 72.103 % |
|      1318 |    3190    27585    87783 |    14808     1318     43 | 72.103 % |
|      2077 |    3190    27585    87783 |    16289     2077     46 | 72.103 % |
|      3216 |    3190    27585    87783 |    17918     3216     66 | 72.103 % |
|      4924 |    3190    27585    87783 |    19710     4924     60 | 72.103 % |
|      7486 |    3190    27585    87783 |    21681     7486     73 | 72.103 % |
|     11330 |    3190    27585    87783 |    23849    11330     79 | 72.103 % |
|     17096 |    3190    27585    87783 |    26234    17096     86 | 72.103 % |
===============================================================================
restarts              : 63
conflicts             : 17866          (26759 /sec)
decisions             : 105322         (0.00 % random) (157744 /sec)
propagations          : 1549752        (2321117 /sec)
conflict literals     : 1660053        (5.73 % deleted)
Memory used           : 61.00 MB
CPU time              : 0.667675 s

SATISFIABLE
